TOUR_SECTION
189
54
49
135
2
144
142
192
179
157
139
176
174
103
167
116
7
181
158
13
131
84
62
108
114
180
141
112
93
17
122
137
190
130
160
73
197
76
106
66
151
1
196
119
25
40
75
111
67
120
77
183
79
188
29
162
113
46
9
61
81
159
4
165
121
56
55
85
187
184
101
16
34
53
80
52
178
41
166
169
22
124
83
132
100
15
44
19
185
5
23
89
115
148
3
109
50
36
68
126
71
91
14
6
35
45
163
10
125
58
48
150
87
92
155
78
110
171
70
11
117
172
74
20
105
161
153
127
147
97
134
95
200
38
94
99
104
193
33
28
156
31
51
154
102
60
37
12
18
194
21
59
39
173
64
133
177
24
123
90
128
88
164
42
26
69
186
198
30
47
136
195
138
199
143
118
107
27
57
191
32
98
8
168
182
146
82
145
149
170
152
175
43
65
86
140
63
96
72
129
-1
EOF